Normalized Data/p01_29_normalized_splitx10_0.vrp
NAME:p01_29_NORMALIZED_splitx10_
BEST_KNOWN: 0
COMMENT: 0
DIMENSION: 199
CAPACITY: 1000
EDGE_WEIGHT_FORMAT: FUNCTION
EDGE_WEIGHT_TYPE: EXACT_2D
NODE_COORD_SECTION
1 0.00000 0.00000
2 -9 34
3 -9 34
4 -9 34
5 -9 34
6 -9 34
7 -9 34
8 42 39
9 42 39
10 42 39
11 7 2
12 7 2
13 7 2
14 7 2
15 11 44
16 11 44
17 11 44
18 11 44
19 11 44
20 37 -15
21 37 -15
22 37 -15
23 37 -15
24 40 42
25 40 42
26 40 42
27 40 42
28 40 42
29 36 16
30 36 16
31 36 16
32 36 16
33 36 16
34 36 16
35 -44 -15
36 -44 -15
37 -44 -15
38 -33 -2
39 -33 -2
40 -33 -2
41 -33 -2
42 -33 -2
43 -6 -4
44 -6 -4
45 -21 4
46 -21 4
47 -21 4
48 -27 -17
49 -27 -17
50 -27 -17
51 33 -35
52 33 -35
53 33 -35
54 -33 6
55 -33 6
56 -33 6
57 -33 6
58 -33 6
59 -33 6
60 -17 -3
61 -17 -3
62 -17 -3
63 -17 -3
64 -17 -3
65 -17 -3
66 25 -39
67 25 -39
68 25 -39
69 25 -39
70 -24 -15
71 -24 -15
72 -24 -15
73 -34 4
74 -34 4
75 -34 4
76 -34 4
77 -34 4
78 -34 4
79 9 -46
80 9 -46
81 9 -46
82 9 -46
83 9 -46
84 9 -46
85 16 -5
86 16 -5
87 16 -5
88 16 -5
89 16 -5
90 16 -5
91 -5 30
92 -5 30
93 -5 30
94 43 -49
95 43 -49
96 43 -49
97 -19 -7
98 -19 -7
99 -19 -7
100 -23 -49
101 -23 -49
102 28 3
103 28 3
104 -34 -38
105 -34 -38
106 -22 31
107 -22 31
108 6 37
109 6 37
110 6 37
111 6 37
112 34 29
113 34 29
114 34 29
115 -39 -26
116 -39 -26
117 -39 -26
118 -39 -26
119 -39 -26
120 10 -17
121 10 -17
122 10 -17
123 10 -17
124 10 -17
125 10 -17
126 -37 43
127 -37 43
128 -37 43
129 -37 43
130 -37 43
131 -1 -8
132 -1 -8
133 -1 -8
134 -1 -8
135 -1 -8
136 30 -42
137 30 -42
138 30 -42
139 30 -42
140 20 31
141 20 31
142 20 31
143 20 31
144 -1 42
145 -1 42
146 -26 17
147 -26 17
148 -48 -4
149 -48 -4
150 -48 -4
151 -29 50
152 -29 50
153 -29 50
154 -43 -18
155 -43 -18
156 -43 -18
157 -43 -18
158 34 -25
159 34 -25
160 34 -25
161 34 -25
162 34 -25
163 39 -37
164 39 -37
165 39 -37
166 39 -37
167 13 14
168 13 14
169 13 14
170 7 16
171 7 16
172 7 16
173 7 16
174 7 16
175 7 16
176 15 10
177 15 10
178 15 10
179 -28 -12
180 -28 -12
181 -28 -12
182 47 -38
183 47 -38
184 47 -38
185 47 -38
186 -8 -27
187 -8 -27
188 -7 -40
189 -7 -40
190 -7 -40
191 -7 -40
192 -7 -40
193 -7 -40
194 42 48
195 42 48
196 42 48
197 42 48
198 42 48
199 42 48
DEMAND_SECTION
1 0
2 200
3 50
4 10
5 10
6 10
7 10
8 200
9 100
10 50
11 200
12 100
13 50
14 10
15 100
16 50
17 10
18 10
19 10
20 200
21 200
22 50
23 10
24 100
25 10
26 10
27 10
28 10
29 200
30 100
31 50
32 10
33 10
34 10
35 200
36 100
37 50
38 200
39 50
40 10
41 10
42 10
43 200
44 100
45 200
46 100
47 50
48 200
49 10
50 10
51 200
52 200
53 10
54 100
55 50
56 10
57 10
58 10
59 10
60 200
61 50
62 10
63 10
64 10
65 10
66 200
67 200
68 10
69 10
70 100
71 10
72 10
73 100
74 50
75 10
76 10
77 10
78 10
79 200
80 50
81 10
82 10
83 10
84 10
85 200
86 100
87 50
88 10
89 10
90 10
91 200
92 100
93 50
94 200
95 200
96 50
97 200
98 100
99 50
100 200
101 100
102 200
103 100
104 200
105 200
106 200
107 10
108 200
109 10
110 10
111 10
112 100
113 10
114 10
115 100
116 50
117 10
118 10
119 10
120 200
121 100
122 50
123 10
124 10
125 10
126 200
127 10
128 10
129 10
130 10
131 200
132 200
133 50
134 10
135 10
136 200
137 200
138 50
139 10
140 100
141 10
142 10
143 10
144 200
145 200
146 200
147 200
148 200
149 200
150 10
151 200
152 200
153 50
154 200
155 200
156 10
157 10
158 200
159 50
160 10
161 10
162 10
163 200
164 50
165 10
166 10
167 200
168 200
169 50
170 200
171 200
172 50
173 10
174 10
175 10
176 200
177 10
178 10
179 200
180 100
181 10
182 100
183 10
184 10
185 10
186 200
187 100
188 200
189 200
190 10
191 10
192 10
193 10
194 200
195 50
196 10
197 10
198 10
199 10
DEPOT_SECTION
1
-1
EOF