Normalized Data/p01_29_normalized_splitx10_0.sol
198 -12 10 89 88 87 85 86 84 119 120 124 122 123 -13 11 102 101 28 30 31 29 33 32 177 175 -21 19 20 22 161 159 158 157 164 163 165 162 -27 25 23 24 26 197 198 194 193 195 196 8 9 7 111 112 113 176 -36 35 34 153 156 154 155 48 47 49 -37 40 38 39 41 149 147 148 178 179 180 -42 43 96 98 97 59 62 64 61 63 60 -46 44 45 56 55 58 53 54 57 76 72 75 73 77 74 -50 51 52 95 94 93 182 181 183 184 160 -70 71 69 117 115 118 114 116 104 103 100 99 -79 135 138 137 136 67 68 66 65 121 -81 80 82 78 83 188 187 189 191 192 190 185 186 -90 91 4 5 2 3 1 6 146 145 -92 144 143 109 107 108 110 17 15 14 16 18 139 140 141 142 -106 105 150 151 152 126 128 129 125 127 -130 133 131 132 134 -166 168 167 172 173 171 174 170 169 0 





OBJ=
1575.058
BEST_KNOWN=
0.000